#This script begins equilibration of the crystalline PEEK sample in ReaxFF after 2 ns of start-up in ReaxFF.
#This sample has spent 29 ns of equilibration in OPLS. This simulation will attempt to keep the temperature around 300 K and the pressure around 1 atm using NPT ensemble. Using 4 processors on Superior's long.q
#---------initialization---------

units           real
dimension       3
boundary        p p p
atom_style      charge
variable		myid string PEEK0502RxEqCrS1
#--------ForceField--------------

read_data			PEEK0414RxStCrS1.dat
pair_style			reax/c lmp_control_lg lgvdw yes
pair_coeff			* * ffield.reax C H O C O

fix 		charges all qeq/reax 1 0.0 10.0 1.0e-6 reax/c

#--------Settings----------------
timestep        0.1 #0.1 fs
variable        Time equal step*dt/1000 #time in picoseconds

#----------Run-------------------
thermo          2500 #every picosecond
thermo_style    custom step v_Time temp press etotal ke pe ebond eangle edihed evdwl density lx ly lz
log             ${myid}.log.lammps
dump            1 all atom 2500 ${myid}.lammpstrj #every picosecond
dump_modify     1 scale no sort id

#Minimize system
#min_style       cg
#minimize        1.0e-4 1.0e-6 10000 1000000
#run				0

#Apply thermostat
fix             1 all npt temp 300 300 10000 iso 1 1 10000
run				20000000 #2000 ps

write_restart	${myid}.restart
write_data		${myid}.dat